c Sudoku solution
p cnf 729 0
112 0
176 0
225 0
237 0
298 0
324 0
372 0
383 0
399 0
449 0
451 0
545 0
596 0
633 0
667 0
681 0
284 0
271 0
714 0
727 0
756 0
768 0
789 0
839 0
878 0
926 0
886 0
941 0
997 0
195 0
187 0
428 0
588 0
985 0
773 0
974 0
742 0
791 0
892 0
735 0
932 0
918 0
493 0
694 0
482 0
959 0
963 0
553 0
252 0
658 0
562 0
464 0
646 0
436 0
534 0
622 0
243 0
123 0
219 0
316 0
169 0
361 0
355 0
347 0
266 0
131 0
338 0
813 0
821 0
511 0
529 0
417 0
615 0
475 0
679 0
577 0
844 0
865 0
857 0
148 0
154 0
